c 
c G(k,n,p) graph
c graph gen seed     : 9902
c number of vertices : 70
c max number of edges: 1225
c number of classes  : 2
c edge density       : 0.300000
c edge probability   : 0.600000
c data structure     : dense
c
c           Graph Stats
c number of vertices  : 70
c nonisolated vertices: 70
c number of edges     : 665
c edge density        : 0.275362
c max degree          : 33
c avg degree          : 19.00
c min degree          : 10
p col 70 665
e 1 5
e 1 8
e 1 10
e 1 11
e 1 12
e 1 15
e 1 19
e 1 25
e 1 26
e 1 34
e 1 46
e 1 51
e 1 64
e 1 67
e 2 5
e 2 6
e 2 8
e 2 10
e 2 12
e 2 13
e 2 15
e 2 25
e 2 30
e 2 33
e 2 34
e 2 37
e 2 38
e 2 40
e 2 46
e 2 51
e 2 64
e 2 67
e 3 5
e 3 6
e 3 8
e 3 10
e 3 11
e 3 12
e 3 15
e 3 19
e 3 22
e 3 34
e 3 46
e 3 51
e 3 67
e 4 5
e 4 6
e 4 11
e 4 12
e 4 19
e 4 22
e 4 25
e 4 26
e 4 32
e 4 33
e 4 34
e 4 37
e 4 40
e 4 46
e 4 51
e 4 67
e 5 17
e 5 18
e 5 20
e 5 23
e 5 24
e 5 28
e 5 31
e 5 35
e 5 36
e 5 39
e 5 41
e 5 45
e 5 47
e 5 48
e 5 49
e 5 53
e 5 55
e 5 57
e 5 58
e 5 59
e 5 60
e 5 61
e 5 62
e 5 63
e 5 66
e 5 69
e 6 7
e 6 9
e 6 16
e 6 17
e 6 18
e 6 20
e 6 23
e 6 24
e 6 29
e 6 35
e 6 36
e 6 39
e 6 41
e 6 48
e 6 49
e 6 52
e 6 56
e 6 57
e 6 59
e 6 60
e 6 61
e 6 62
e 6 63
e 6 65
e 6 66
e 6 68
e 6 69
e 6 70
e 7 12
e 7 13
e 7 21
e 7 22
e 7 25
e 7 30
e 7 33
e 7 34
e 7 37
e 7 38
e 7 64
e 8 9
e 8 14
e 8 16
e 8 17
e 8 18
e 8 20
e 8 28
e 8 31
e 8 35
e 8 41
e 8 42
e 8 44
e 8 45
e 8 48
e 8 49
e 8 50
e 8 52
e 8 53
e 8 54
e 8 55
e 8 60
e 8 61
e 8 62
e 8 63
e 8 65
e 8 66
e 8 68
e 8 70
e 9 10
e 9 11
e 9 12
e 9 13
e 9 21
e 9 25
e 9 33
e 9 34
e 9 37
e 9 38
e 9 40
e 9 51
e 10 17
e 10 20
e 10 23
e 10 24
e 10 27
e 10 28
e 10 35
e 10 41
e 10 42
e 10 44
e 10 45
e 10 47
e 10 49
e 10 50
e 10 52
e 10 54
e 10 55
e 10 58
e 10 59
e 10 61
e 10 62
e 10 63
e 10 65
e 10 66
e 10 68
e 10 70
e 11 16
e 11 17
e 11 18
e 11 23
e 11 27
e 11 39
e 11 45
e 11 50
e 11 52
e 11 53
e 11 57
e 11 60
e 11 62
e 11 65
e 11 68
e 12 14
e 12 18
e 12 20
e 12 27
e 12 28
e 12 29
e 12 35
e 12 36
e 12 42
e 12 47
e 12 48
e 12 50
e 12 53
e 12 55
e 12 56
e 12 57
e 12 58
e 12 60
e 12 65
e 12 66
e 12 69
e 12 70
e 13 14
e 13 16
e 13 17
e 13 18
e 13 20
e 13 23
e 13 24
e 13 28
e 13 29
e 13 35
e 13 36
e 13 41
e 13 42
e 13 44
e 13 45
e 13 47
e 13 48
e 13 49
e 13 50
e 13 52
e 13 56
e 13 57
e 13 58
e 13 59
e 13 62
e 13 65
e 13 66
e 13 68
e 13 69
e 14 19
e 14 21
e 14 33
e 14 37
e 14 38
e 14 40
e 14 46
e 14 51
e 14 64
e 15 16
e 15 17
e 15 18
e 15 20
e 15 23
e 15 27
e 15 31
e 15 35
e 15 36
e 15 41
e 15 44
e 15 49
e 15 50
e 15 52
e 15 54
e 15 56
e 15 58
e 15 59
e 15 60
e 15 63
e 15 69
e 16 22
e 16 25
e 16 26
e 16 30
e 16 32
e 16 34
e 16 38
e 16 43
e 16 64
e 16 67
e 17 19
e 17 21
e 17 22
e 17 25
e 17 32
e 17 33
e 17 34
e 17 37
e 17 38
e 17 40
e 17 43
e 17 46
e 17 51
e 17 64
e 17 67
e 18 19
e 18 21
e 18 22
e 18 32
e 18 34
e 18 67
e 19 20
e 19 23
e 19 24
e 19 27
e 19 28
e 19 29
e 19 35
e 19 39
e 19 41
e 19 44
e 19 45
e 19 50
e 19 53
e 19 55
e 19 56
e 19 60
e 19 62
e 19 63
e 19 65
e 19 66
e 19 69
e 20 21
e 20 30
e 20 32
e 20 37
e 20 38
e 20 40
e 20 43
e 20 46
e 20 51
e 20 64
e 20 67
e 21 23
e 21 24
e 21 27
e 21 31
e 21 36
e 21 39
e 21 44
e 21 55
e 21 57
e 21 59
e 21 60
e 21 62
e 21 63
e 21 65
e 21 68
e 21 69
e 22 24
e 22 29
e 22 35
e 22 36
e 22 39
e 22 44
e 22 48
e 22 50
e 22 52
e 22 54
e 22 55
e 22 56
e 22 58
e 22 59
e 22 61
e 22 62
e 22 63
e 22 65
e 22 66
e 22 68
e 22 70
e 23 25
e 23 30
e 23 32
e 23 33
e 23 38
e 23 40
e 23 46
e 23 51
e 23 67
e 24 25
e 24 26
e 24 32
e 24 33
e 24 34
e 24 37
e 24 38
e 24 43
e 24 64
e 24 67
e 25 27
e 25 28
e 25 31
e 25 35
e 25 36
e 25 41
e 25 42
e 25 45
e 25 47
e 25 48
e 25 49
e 25 50
e 25 53
e 25 54
e 25 55
e 25 56
e 25 58
e 25 59
e 25 60
e 25 63
e 25 65
e 25 66
e 25 68
e 25 69
e 26 27
e 26 29
e 26 31
e 26 35
e 26 36
e 26 44
e 26 45
e 26 47
e 26 49
e 26 50
e 26 53
e 26 54
e 26 55
e 26 56
e 26 57
e 26 58
e 26 60
e 26 65
e 26 68
e 26 70
e 27 30
e 27 32
e 27 33
e 27 34
e 27 37
e 27 38
e 27 43
e 27 46
e 27 51
e 27 67
e 28 30
e 28 32
e 28 33
e 28 34
e 28 37
e 28 38
e 28 40
e 28 43
e 29 32
e 29 34
e 29 38
e 29 46
e 29 51
e 29 67
e 30 35
e 30 36
e 30 39
e 30 42
e 30 47
e 30 49
e 30 50
e 30 52
e 30 53
e 30 54
e 30 56
e 30 57
e 30 59
e 30 63
e 30 66
e 30 68
e 30 70
e 31 34
e 31 37
e 31 46
e 31 51
e 31 64
e 32 35
e 32 36
e 32 41
e 32 42
e 32 48
e 32 53
e 32 55
e 32 56
e 32 57
e 32 58
e 32 68
e 32 70
e 33 35
e 33 41
e 33 42
e 33 44
e 33 45
e 33 49
e 33 53
e 33 54
e 33 55
e 33 56
e 33 57
e 33 58
e 33 60
e 33 63
e 33 69
e 34 39
e 34 41
e 34 42
e 34 44
e 34 45
e 34 50
e 34 52
e 34 53
e 34 54
e 34 55
e 34 56
e 34 57
e 34 59
e 34 60
e 34 61
e 34 63
e 34 66
e 34 68
e 35 37
e 35 38
e 35 40
e 35 43
e 35 46
e 35 64
e 36 40
e 36 64
e 36 67
e 37 39
e 37 41
e 37 42
e 37 44
e 37 48
e 37 50
e 37 53
e 37 54
e 37 55
e 37 56
e 37 58
e 37 59
e 37 60
e 37 61
e 37 65
e 37 66
e 37 69
e 38 41
e 38 42
e 38 47
e 38 52
e 38 56
e 38 57
e 38 59
e 38 61
e 38 63
e 38 65
e 38 66
e 38 68
e 38 69
e 38 70
e 39 40
e 39 43
e 39 46
e 39 64
e 40 41
e 40 45
e 40 48
e 40 49
e 40 50
e 40 52
e 40 54
e 40 60
e 40 63
e 40 68
e 40 69
e 40 70
e 41 43
e 41 46
e 41 64
e 42 64
e 43 45
e 43 49
e 43 50
e 43 52
e 43 54
e 43 56
e 43 57
e 43 59
e 43 65
e 43 66
e 43 68
e 43 69
e 44 46
e 44 51
e 45 46
e 45 67
e 46 47
e 46 48
e 46 49
e 46 53
e 46 54
e 46 56
e 46 58
e 46 61
e 46 62
e 46 63
e 46 68
e 47 51
e 47 67
e 48 51
e 48 64
e 50 67
e 51 52
e 51 53
e 51 54
e 51 55
e 51 56
e 51 57
e 51 59
e 51 60
e 51 65
e 51 69
e 51 70
e 52 67
e 53 67
e 54 67
e 56 64
e 57 67
e 58 64
e 58 67
e 60 67
e 61 67
e 62 64
e 62 67
e 63 67
e 64 65
e 64 66
e 64 68
e 64 69
e 66 67
e 67 68
e 67 69
e 67 70
